p cnf 10 50
7 5 -4 0
10 -8 6 0
3 -4 9 0
10 -3 -9 0
-8 7 -1 0
3 -2 -6 0
9 -2 -10 0
-6 -7 9 0
-7 1 4 0
-3 5 -6 0
8 -3 -5 0
-3 10 -9 0
4 -2 10 0
6 -2 4 0
10 -1 4 0
-6 2 8 0
-9 -1 3 0
-7 -5 -9 0
-5 10 -3 0
10 -9 -2 0
1 3 7 0
4 -3 -9 0
-2 8 -4 0
8 5 3 0
8 -10 9 0
-6 -3 10 0
6 7 -10 0
-8 -2 9 0
-2 -4 1 0
1 6 -10 0
2 -3 9 0
6 -5 4 0
9 -5 -10 0
5 2 4 0
8 -4 2 0
2 7 10 0
4 -10 6 0
-1 3 10 0
-3 10 -6 0
5 1 -4 0
-9 -5 -3 0
9 4 5 0
-5 -10 8 0
-2 1 4 0
6 -3 4 0
-5 8 -6 0
-3 -9 -4 0
-8 1 6 0
-10 9 -7 0
4 3 9 0